CPXPARAM_MIP_Strategy_SubAlgorithm#P45#2#2.662445#1.000000
CPXPARAM_MIP_Strategy_SubAlgorithm#P45#3#2.650159#0.995386
CPXPARAM_MIP_Strategy_SubAlgorithm#P45#4#2.662330#0.999957
CPXPARAM_MIP_Strategy_SubAlgorithm#P45#5#2.662346#0.999963
